c CNF-Signature AND_25
c 
c $p 25 1
c $m (1,2,3,4,5,6,7,8,9,10,11,12,13,14,15,16,17,18,19,20,21,22,23,24,25,26)
c $i 1
c $i 2
c $i 3
c $i 4
c $i 5
c $i 6
c $i 7
c $i 8
c $i 9
c $i 10
c $i 11
c $i 12
c $i 13
c $i 14
c $i 15
c $i 16
c $i 17
c $i 18
c $i 19
c $i 20
c $i 21
c $i 22
c $i 23
c $i 24
c $i 25
c $o 26
p cnf 26 26
1 -26 0
2 -26 0
3 -26 0
4 -26 0
5 -26 0
6 -26 0
7 -26 0
8 -26 0
9 -26 0
10 -26 0
11 -26 0
12 -26 0
13 -26 0
14 -26 0
15 -26 0
16 -26 0
17 -26 0
18 -26 0
19 -26 0
20 -26 0
21 -26 0
22 -26 0
23 -26 0
24 -26 0
25 -26 0
-1 -2 -3 -4 -5 -6 -7 -8 -9 -10 -11 -12 -13 -14 -15 -16 -17 -18 -19 -20 -21 -22 -23 -24 -25 26 0
